p cnf 50 50
-37 -32 6 0
1 21 -36 0
24 -36 25 0
31 -28 15 0
40 -17 -42 0
46 -37 4 0
-7 10 23 0
41 40 -7 0
-3 -47 -10 0
-10 -29 20 0
28 -41 14 0
-2 -45 49 0
5 34 -20 0
-36 44 29 0
-30 -47 -8 0
1 -49 -20 0
26 19 -31 0
-1 17 38 0
-37 8 42 0
45 -43 10 0
18 31 7 0
-40 39 6 0
40 -39 45 0
-34 42 14 0
-40 13 15 0
-14 22 44 0
38 -6 7 0
-9 31 -27 0
-27 35 48 0
20 -42 38 0
38 33 -7 0
-47 27 -35 0
-41 -38 -13 0
-38 5 -7 0
-11 -41 -24 0
47 27 40 0
45 30 24 0
26 -24 -14 0
-16 -20 -1 0
23 9 -47 0
44 41 -38 0
-7 -34 -43 0
5 14 48 0
23 49 -41 0
-3 26 46 0
21 -49 -48 0
-12 17 49 0
-50 -13 -29 0
7 -8 14 0
48 22 -17 0
